(set-logic HORN)


(declare-fun |Start| ( Int Int Int ) Bool)

(assert
  (forall ( (v_0 Int) (v_1 Int) (v_2 Int) ) 
    (=>
      (and
        (and true (= 0 v_0) (= (- 4) v_1) (= 5 v_2))
      )
      (Start v_0 v_1 v_2)
    )
  )
)
(assert
  (forall ( (v_0 Int) (v_1 Int) (v_2 Int) ) 
    (=>
      (and
        (and true (= 0 v_0) (= 0 v_1) (= (- 9) v_2))
      )
      (Start v_0 v_1 v_2)
    )
  )
)
(assert
  (forall ( (v_0 Int) (v_1 Int) (v_2 Int) ) 
    (=>
      (and
        (and true (= 0 v_0) (= 0 v_1) (= 0 v_2))
      )
      (Start v_0 v_1 v_2)
    )
  )
)
(assert
  (forall ( (v_0 Int) (v_1 Int) (v_2 Int) ) 
    (=>
      (and
        (and true (= 1 v_0) (= 1 v_1) (= 1 v_2))
      )
      (Start v_0 v_1 v_2)
    )
  )
)
(assert
  (forall ( (A Int) (B Int) (C Int) (D Int) (E Int) (F Int) (G Int) (H Int) (I Int) ) 
    (=>
      (and
        (Start G H I)
        (Start D E F)
        (and (= B (+ E H)) (= C (+ D G)) (= A (+ F I)))
      )
      (Start C B A)
    )
  )
)
(assert
  (forall ( (A Int) (B Int) (C Int) ) 
    (=>
      (and
        (Start A B C)
        (and (= B (- 11)) (= A 1) (= C 15))
      )
      false
    )
  )
)

(check-sat)
(exit)
